(declare-const X String)
; Contact\d+Host\x3A[^\n\r]*User-Agent\x3AHost\x3aMailHost\x3aMSNLOGOVN
(assert (not (str.in_re X (re.++ (str.to_re "Contact") (re.+ (re.range "0" "9")) (str.to_re "Host:") (re.* (re.union (str.to_re "\u{a}") (str.to_re "\u{d}"))) (str.to_re "User-Agent:Host:MailHost:MSNLOGOVN\u{a}")))))
; /filename\s*=\s*[^\r\n]*?\x2epcx[\x22\x27\x3b\s\r\n]/i
(assert (not (str.in_re X (re.++ (str.to_re "/filename") (re.* (re.union (str.to_re " ") (str.to_re "\u{9}") (str.to_re "\u{a}") (str.to_re "\u{c}") (str.to_re "\u{d}"))) (str.to_re "=") (re.* (re.union (str.to_re " ") (str.to_re "\u{9}") (str.to_re "\u{a}") (str.to_re "\u{c}") (str.to_re "\u{d}"))) (re.* (re.union (str.to_re "\u{d}") (str.to_re "\u{a}"))) (str.to_re ".pcx") (re.union (str.to_re "\u{22}") (str.to_re "'") (str.to_re ";") (str.to_re "\u{d}") (str.to_re "\u{a}") (str.to_re " ") (str.to_re "\u{9}") (str.to_re "\u{a}") (str.to_re "\u{c}") (str.to_re "\u{d}")) (str.to_re "/i\u{a}")))))
; /gate\x2ephp\x3fid=[a-z]{15}/U
(assert (str.in_re X (re.++ (str.to_re "/gate.php?id=") ((_ re.loop 15 15) (re.range "a" "z")) (str.to_re "/U\u{a}"))))
; (\"http:\/\/www\.youtube\.com\/v\/\w{11}\&rel\=1\")
(assert (not (str.in_re X (re.++ (str.to_re "\u{a}\u{22}http://www.youtube.com/v/") ((_ re.loop 11 11) (re.union (re.range "0" "9") (re.range "A" "Z") (re.range "a" "z") (str.to_re "_"))) (str.to_re "&rel=1\u{22}")))))
(check-sat)

(exit)
